
Gurobi 10.0.1 (win64) logging started Sat Sep  9 15:28:36 2023

Set parameter LogFile to value "results-heuristic-start//log/URT_08_makespan.log"
Gurobi Optimizer version 10.0.1 build v10.0.1rc0 (win64)

CPU model: AMD Ryzen 7 3700X 8-Core Processor, instruction set [SSE2|AVX|AVX2]
Thread count: 8 physical cores, 16 logical processors, using up to 16 threads

Optimize a model with 166 rows, 118 columns and 629 nonzeros
Model fingerprint: 0x5fd896a0
Variable types: 18 continuous, 100 integer (99 binary)
Coefficient statistics:
  Matrix range     [1e+00, 1e+06]
  Objective range  [1e+00, 1e+00]
  Bounds range     [1e+00, 1e+00]
  RHS range        [1e+00, 3e+06]

User MIP start produced solution with objective 564 (0.00s)
Loaded user MIP start with objective 564

Presolve removed 35 rows and 50 columns
Presolve time: 0.00s
Presolved: 131 rows, 68 columns, 574 nonzeros
Variable types: 18 continuous, 50 integer (49 binary)
Found heuristic solution: objective 563.0000000

Root relaxation: objective 2.800000e+01, 23 iterations, 0.00 seconds (0.00 work units)

    Nodes    |    Current Node    |     Objective Bounds      |     Work
 Expl Unexpl |  Obj  Depth IntInf | Incumbent    BestBd   Gap | It/Node Time

     0     0   28.00000    0    6  563.00000   28.00000  95.0%     -    0s
H    0     0                      78.0000000   28.00000  64.1%     -    0s
H    0     0                      71.0000000   28.00000  60.6%     -    0s
H    0     0                      67.0000000   28.00000  58.2%     -    0s
     0     0   28.55000    0    5   67.00000   28.55000  57.4%     -    0s
     0     0   29.00000    0    4   67.00000   29.00000  56.7%     -    0s
H    0     0                      66.0000000   29.00000  56.1%     -    0s
H    0     0                      60.0000000   29.00000  51.7%     -    0s
     0     0   29.00000    0    7   60.00000   29.00000  51.7%     -    0s
H    0     0                      55.0000000   29.82609  45.8%     -    0s
H    0     0                      50.0000000   29.82609  40.3%     -    0s
     0     0   29.82609    0    7   50.00000   29.82609  40.3%     -    0s
     0     0   30.00000    0    9   50.00000   30.00000  40.0%     -    0s
     0     0   30.00000    0   11   50.00000   30.00000  40.0%     -    0s
     0     0   30.04019    0   11   50.00000   30.04019  39.9%     -    0s
     0     0   30.29883    0   10   50.00000   30.29883  39.4%     -    0s
     0     0   30.31463    0    9   50.00000   30.31463  39.4%     -    0s
     0     0   30.31463    0    9   50.00000   30.31463  39.4%     -    0s
H    0     0                      48.0000000   30.31463  36.8%     -    0s
     0     0   31.48575    0    7   48.00000   31.48575  34.4%     -    0s
     0     0   31.54883    0    9   48.00000   31.54883  34.3%     -    0s
     0     0   31.54883    0    5   48.00000   31.54883  34.3%     -    0s
     0     0   31.84443    0   11   48.00000   31.84443  33.7%     -    0s
     0     0   36.15272    0   11   48.00000   36.15272  24.7%     -    0s
     0     0   36.66667    0   10   48.00000   36.66667  23.6%     -    0s
     0     0   40.00000    0    9   48.00000   40.00000  16.7%     -    0s
     0     0   40.00000    0    9   48.00000   40.00000  16.7%     -    0s
     0     0   46.00000    0   10   48.00000   46.00000  4.17%     -    0s

Cutting planes:
  Learned: 6
  Gomory: 2
  Cover: 2
  Implied bound: 3
  MIR: 11
  Flow cover: 6
  Relax-and-lift: 1

Explored 1 nodes (304 simplex iterations) in 0.20 seconds (0.02 work units)
Thread count was 16 (of 16 available processors)

Solution count 10: 48 50 55 ... 564

Optimal solution found (tolerance 1.00e-04)
Best objective 4.800000000000e+01, best bound 4.800000000000e+01, gap 0.0000%
Warning: constraint name "precedence between 0,1 to 0,0 if x_[j,l,h,z,i]=1" has a space
Warning: constraint name "precedence between 0,1 to 0,0 if x_[j,l,h,z,i]=1" has a space
Warning: default constraint names used to write mps file
